g3 0 1 0	# problem smbank
 117 64 1 0 64	# vars, constraints, objectives, ranges, eqns
 0 1	# nonlinear constraints, objectives
 0 0	# network constraints: nonlinear, linear
 0 85 0	# nonlinear vars in constraints, objectives, both
 0 0 0 1	# linear network variables; functions; arith, flags
 0 0 0 0 0	# discrete variables: binary, integer, nonlinear (b,c,o)
 234 85	# nonzeros in Jacobian, gradients
 0 0	# max name lengths: constraints, variables
 0 0 0 0 0	# common exprs: b,c,o,c1,o1
b
2 0.1
2 0.1
2 0.1
2 0.1
2 0.1
2 0.1
2 0.1
2 0.1
2 0.1
2 0.1
2 0.1
2 0.1
2 0.1
2 0.1
2 0.1
2 0.1
2 0.1
2 0.1
2 0.1
2 0.1
2 0.1
2 0.1
2 0.1
2 0.1
2 0.1
2 0.1
2 0.1
2 0.1
2 0.1
2 0.1
2 0.1
2 0.1
2 0.1
2 0.1
2 0.1
2 0.1
2 0.1
2 0.1
2 0.1
2 0.1
2 0.1
2 0.1
2 0.1
2 0.1
2 0.1
2 0.1
2 0.1
2 0.1
2 0.1
2 0.1
2 0.1
2 0.1
2 0.1
2 0.1
2 0.1
2 0.1
2 0.1
2 0.1
2 0.1
2 0.1
2 0.1
2 0.1
2 0.1
2 0.1
2 0.1
2 0.1
2 0.1
2 0.1
2 0.1
2 0.1
2 0.1
2 0.1
2 0.1
2 0.1
2 0.1
2 0.1
2 0.1
2 0.1
2 0.1
2 0.1
2 0.1
2 0.1
2 0.1
2 0.1
2 0.1
3
3
3
3
3
3
3
3
3
3
3
3
3
3
3
3
3
3
3
3
3
3
3
3
3
3
3
3
3
3
3
3
x117
0 0.1
1 0.1
2 0.1
3 0.7
4 0.7
5 0.1
6 0.1
7 0.1
8 0.1
9 0.1
10 0.1
11 0.7
12 0.1
13 0.1
14 0.1
15 0.1
16 0.9
17 0.1
18 0.1
19 0.1
20 0.6
21 0.9
22 0.1
23 0.1
24 0.1
25 0.1
26 0.1
27 0.4
28 0.1
29 0.4
30 0.4
31 0.1
32 1
33 0.5
34 0.5
35 0.5
36 1.1
37 0.1
38 0.1
39 0.1
40 0.1
41 0.3
42 0.1
43 0.1
44 0.1
45 0.1
46 0.2
47 0.1
48 0.1
49 0.1
50 0.1
51 0.1
52 0.1
53 0.1
54 0.1
55 0.1
56 0.1
57 0.1
58 0.1
59 0.1
60 0.7
61 0.1
62 0.2
63 0.3
64 0.2
65 0.1
66 0.2
67 0.2
68 0.1
69 0.1
70 0.1
71 0.1
72 0.1
73 0.1
74 0.1
75 0.1
76 0.1
77 0.1
78 0.1
79 0.1
80 0.2
81 0.1
82 0.1
83 0.1
84 0.1
85 0.1
86 0.1
87 0.1
88 0.7
89 0.9
90 1
91 0.3
92 1.3
93 0.6
94 0.9
95 0.4
96 0.5
97 0.5
98 0.4
99 1.1
100 0.5
101 0.5
102 0.5
103 1.1
104 0.7
105 0.8
106 0.7
107 1.2
108 0.2
109 0.3
110 0.2
111 0.1
112 0.2
113 0.2
114 0.1
115 0.9
116 0.7
r
4 0
4 0
4 0
4 0
4 0
4 0
4 0
4 0
4 0
4 0
4 0
4 0
4 0
4 0
4 0
4 0
4 0
4 0
4 0
4 0
4 0
4 0
4 0
4 0
4 0
4 0
4 0
4 0
4 0
4 0
4 0
4 0
4 0
4 0
4 0
4 0
4 0
4 0
4 0
4 0
4 0
4 0
4 0
4 0
4 0
4 0
4 0
4 0
4 0
4 0
4 0
4 0
4 0
4 0
4 0
4 0
4 0
4 0
4 0
4 0
4 0
4 0
4 0
4 0
C0
n0
C1
n0
C2
n0
C3
n0
C4
n0
C5
n0
C6
n0
C7
n0
C8
n0
C9
n0
C10
n0
C11
n0
C12
n0
C13
n0
C14
n0
C15
n0
C16
n0
C17
n0
C18
n0
C19
n0
C20
n0
C21
n0
C22
n0
C23
n0
C24
n0
C25
n0
C26
n0
C27
n0
C28
n0
C29
n0
C30
n0
C31
n0
C32
n0
C33
n0
C34
n0
C35
n0
C36
n0
C37
n0
C38
n0
C39
n0
C40
n0
C41
n0
C42
n0
C43
n0
C44
n0
C45
n0
C46
n0
C47
n0
C48
n0
C49
n0
C50
n0
C51
n0
C52
n0
C53
n0
C54
n0
C55
n0
C56
n0
C57
n0
C58
n0
C59
n0
C60
n0
C61
n0
C62
n0
C63
n0
O0 0
o54
85
o2
v0
o0
n-1
o43
o3
v0
n175726
o2
v1
o0
n-1
o43
o3
v1
n140841
o2
v2
o0
n-1
o43
o3
v2
n12891
o2
v3
o0
n-1
o43
o3
v3
n273191
o2
v4
o0
n-1
o43
o3
v4
n273191
o2
v5
o0
n-1
o43
o3
v5
n12891
o2
v6
o0
n-1
o43
o3
v6
n140841
o2
v7
o0
n-1
o43
o3
v7
n175726
o2
v8
o0
n-1
o43
o3
v8
n4759
o2
v9
o0
n-1
o43
o3
v9
n380
o2
v10
o0
n-1
o43
o3
v10
n3859
o2
v11
o0
n-1
o43
o3
v11
n520758
o2
v12
o0
n-1
o43
o3
v12
n9940
o2
v13
o0
n-1
o43
o3
v13
n6164
o2
v14
o0
n-1
o43
o3
v14
n63118
o2
v15
o0
n-1
o43
o3
v15
n2738
o2
v16
o0
n-1
o43
o3
v16
n71083
o2
v17
o0
n-1
o43
o3
v17
n10153
o2
v18
o0
n-1
o43
o3
v18
n9294
o2
v19
o0
n-1
o43
o3
v19
n4367
o2
v20
o0
n-1
o43
o3
v20
n442511
o2
v21
o0
n-1
o43
o3
v21
n84668
o2
v22
o0
n-1
o43
o3
v22
n48524
o2
v23
o0
n-1
o43
o3
v23
n2645
o2
v24
o0
n-1
o43
o3
v24
n65210
o2
v25
o0
n-1
o43
o3
v25
n71528
o2
v26
o0
n-1
o43
o3
v26
n74346
o2
v27
o0
n-1
o43
o3
v27
n226846
o2
v28
o0
n-1
o43
o3
v28
n58725
o2
v29
o0
n-1
o43
o3
v29
n410017
o2
v30
o0
n-1
o43
o3
v30
n52774
o2
v31
o0
n-1
o43
o3
v31
n31847
o2
v32
o0
n-1
o43
o3
v32
n416672
o2
v33
o0
n-1
o43
o3
v33
n228906
o2
v34
o0
n-1
o43
o3
v34
n437902
o2
v35
o0
n-1
o43
o3
v35
n53520
o2
v36
o0
n-1
o43
o3
v36
n434014
o2
v37
o0
n-1
o43
o3
v37
n11928
o2
v38
o0
n-1
o43
o3
v38
n46747
o2
v39
o0
n-1
o43
o3
v39
n22284
o2
v40
o0
n-1
o43
o3
v40
n19093
o2
v41
o0
n-1
o43
o3
v41
n131949
o2
v42
o0
n-1
o43
o3
v42
n29947
o2
v43
o0
n-1
o43
o3
v43
n982
o2
v44
o0
n-1
o43
o3
v44
n175800
o2
v45
o0
n-1
o43
o3
v45
n30274
o2
v46
o0
n-1
o43
o3
v46
n161094
o2
v47
o0
n-1
o43
o3
v47
n7203
o2
v48
o0
n-1
o43
o3
v48
n173359
o2
v49
o0
n-1
o43
o3
v49
n18971
o2
v50
o0
n-1
o43
o3
v50
n32905
o2
v51
o0
n-1
o43
o3
v51
n21978
o2
v52
o0
n-1
o43
o3
v52
n9613
o2
v53
o0
n-1
o43
o3
v53
n7720
o2
v54
o0
n-1
o43
o3
v54
n2846
o2
v55
o0
n-1
o43
o3
v55
n19522
o2
v56
o0
n-1
o43
o3
v56
n114482
o2
v57
o0
n-1
o43
o3
v57
n5996
o2
v58
o0
n-1
o43
o3
v58
n83376
o2
v59
o0
n-1
o43
o3
v59
n63295
o2
v60
o0
n-1
o43
o3
v60
n74619
o2
v61
o0
n-1
o43
o3
v61
n117681
o2
v62
o0
n-1
o43
o3
v62
n3095
o2
v63
o0
n-1
o43
o3
v63
n140757
o2
v64
o0
n-1
o43
o3
v64
n60035
o2
v65
o0
n-1
o43
o3
v65
n25435
o2
v66
o0
n-1
o43
o3
v66
n77587
o2
v67
o0
n-1
o43
o3
v67
n58884
o2
v68
o0
n-1
o43
o3
v68
n31847
o2
v69
o0
n-1
o43
o3
v69
n159
o2
v70
o0
n-1
o43
o3
v70
n3241
o2
v71
o0
n-1
o43
o3
v71
n2138
o2
v72
o0
n-1
o43
o3
v72
n16583
o2
v73
o0
n-1
o43
o3
v73
n929
o2
v74
o0
n-1
o43
o3
v74
n17342
o2
v75
o0
n-1
o43
o3
v75
n746
o2
v76
o0
n-1
o43
o3
v76
n27885
o2
v77
o0
n-1
o43
o3
v77
n2060
o2
v78
o0
n-1
o43
o3
v78
n25435
o2
v79
o0
n-1
o43
o3
v79
n57897
o2
v80
o0
n-1
o43
o3
v80
n124174
o2
v81
o0
n-1
o43
o3
v81
n2166
o2
v82
o0
n-1
o43
o3
v82
n2
o2
v83
o0
n-1
o43
o3
v83
n259
o2
v84
o0
n-1
o43
o3
v84
n14406
k116
2
4
6
8
10
12
14
16
18
20
22
24
26
28
30
32
34
36
38
40
42
44
46
48
50
52
54
56
58
60
62
64
66
68
70
72
74
76
78
80
82
84
86
88
90
92
94
96
98
100
102
104
106
108
110
112
114
116
118
120
122
124
126
128
130
132
134
136
138
140
142
144
146
148
150
152
154
156
158
160
162
164
166
168
170
172
174
176
178
180
182
184
186
188
190
192
194
196
198
200
202
204
206
208
210
212
214
216
218
220
222
224
226
228
230
232
J0 2
0 -1
85 1
J1 2
1 -1
86 1
J2 2
2 -1
87 1
J3 2
3 -1
88 1
J4 6
4 -1
5 -1
6 -1
7 -1
84 1
89 1
J5 5
8 -1
9 -1
10 -1
11 -1
90 1
J6 4
12 -1
13 -1
14 -1
91 1
J7 6
15 -1
16 -1
17 -1
18 -1
19 -1
92 1
J8 2
20 -1
93 1
J9 2
21 -1
94 1
J10 5
22 -1
23 -1
24 -1
25 -1
95 1
J11 3
26 -1
27 -1
96 1
J12 3
28 -1
29 -1
97 1
J13 2
30 -1
98 1
J14 3
31 -1
32 -1
99 1
J15 2
33 -1
100 1
J16 2
34 -1
101 1
J17 2
35 -1
102 1
J18 2
36 -1
103 1
J19 6
37 -1
38 -1
39 -1
40 -1
41 -1
104 1
J20 8
42 -1
43 -1
44 -1
45 -1
46 -1
47 -1
48 -1
105 1
J21 8
49 -1
50 -1
51 -1
52 -1
53 -1
54 -1
55 -1
106 1
J22 7
56 -1
57 -1
58 -1
59 -1
60 -1
61 -1
107 1
J23 2
62 -1
108 1
J24 2
63 -1
109 1
J25 2
64 -1
110 1
J26 2
65 -1
111 1
J27 2
66 -1
112 1
J28 2
67 -1
113 1
J29 2
68 -1
114 1
J30 10
69 -1
70 -1
71 -1
72 -1
73 -1
74 -1
75 -1
76 -1
77 -1
115 1
J31 7
78 -1
79 -1
80 -1
81 -1
82 -1
83 -1
116 1
J32 2
7 1
85 -1
J33 2
6 1
86 -1
J34 2
5 1
87 -1
J35 2
4 1
88 -1
J36 4
11 1
14 1
19 1
89 -1
J37 6
13 1
18 1
20 1
25 1
83 1
90 -1
J38 4
10 1
17 1
24 1
91 -1
J39 6
9 1
12 1
21 1
23 1
82 1
92 -1
J40 5
41 1
48 1
55 1
61 1
93 -1
J41 4
47 1
54 1
60 1
94 -1
J42 4
40 1
46 1
53 1
95 -1
J43 6
0 1
39 1
45 1
52 1
59 1
96 -1
J44 6
1 1
38 1
44 1
51 1
58 1
97 -1
J45 5
2 1
43 1
50 1
57 1
98 -1
J46 6
3 1
37 1
42 1
49 1
56 1
99 -1
J47 3
27 1
77 1
100 -1
J48 3
29 1
76 1
101 -1
J49 3
30 1
75 1
102 -1
J50 3
32 1
74 1
103 -1
J51 3
33 1
62 1
104 -1
J52 3
34 1
63 1
105 -1
J53 3
35 1
64 1
106 -1
J54 3
36 1
65 1
107 -1
J55 3
73 1
81 1
108 -1
J56 3
72 1
80 1
109 -1
J57 3
71 1
79 1
110 -1
J58 2
78 1
111 -1
J59 3
26 1
70 1
112 -1
J60 3
28 1
69 1
113 -1
J61 2
31 1
114 -1
J62 2
16 1
115 -1
J63 8
8 1
15 1
22 1
66 1
67 1
68 1
84 -1
116 -1
G0 85
0 0
1 0
2 0
3 0
4 0
5 0
6 0
7 0
8 0
9 0
10 0
11 0
12 0
13 0
14 0
15 0
16 0
17 0
18 0
19 0
20 0
21 0
22 0
23 0
24 0
25 0
26 0
27 0
28 0
29 0
30 0
31 0
32 0
33 0
34 0
35 0
36 0
37 0
38 0
39 0
40 0
41 0
42 0
43 0
44 0
45 0
46 0
47 0
48 0
49 0
50 0
51 0
52 0
53 0
54 0
55 0
56 0
57 0
58 0
59 0
60 0
61 0
62 0
63 0
64 0
65 0
66 0
67 0
68 0
69 0
70 0
71 0
72 0
73 0
74 0
75 0
76 0
77 0
78 0
79 0
80 0
81 0
82 0
83 0
84 0
